c Generated map
c Size: 9 * 9, weights in range: 1 to 10, walls: True, with ratio 0.1
c dim 7 of 7
c
p sp 81 116
c graph contains 81 nodes and 116 arcs
c
a 1 10 10
a 10 1 10
a 1 2 1
a 2 1 1
a 2 11 6
a 11 2 6
a 2 3 5
a 3 2 5
a 5 14 3
a 14 5 3
a 5 6 9
a 6 5 9
a 6 15 10
a 15 6 10
a 6 7 9
a 7 6 9
a 7 16 1
a 16 7 1
a 7 8 2
a 8 7 2
a 8 17 2
a 17 8 2
a 8 9 2
a 9 8 2
a 9 18 8
a 18 9 8
a 10 19 6
a 19 10 6
a 10 11 10
a 11 10 10
a 11 20 4
a 20 11 4
a 13 22 5
a 22 13 5
a 13 14 8
a 14 13 8
a 14 23 9
a 23 14 9
a 14 15 3
a 15 14 3
a 15 24 10
a 24 15 10
a 15 16 3
a 16 15 3
a 16 25 3
a 25 16 3
a 16 17 5
a 17 16 5
a 17 26 3
a 26 17 3
a 17 18 8
a 18 17 8
a 18 27 2
a 27 18 2
a 19 28 1
a 28 19 1
a 19 20 10
a 20 19 10
a 20 29 3
a 29 20 3
a 20 21 10
a 21 20 10
a 21 30 7
a 30 21 7
a 21 22 7
a 22 21 7
a 22 31 9
a 31 22 9
a 22 23 4
a 23 22 4
a 23 32 8
a 32 23 8
a 23 24 10
a 24 23 10
a 24 33 10
a 33 24 10
a 24 25 7
a 25 24 7
a 25 34 10
a 34 25 10
a 25 26 9
a 26 25 9
a 26 35 6
a 35 26 6
a 26 27 9
a 27 26 9
a 27 36 2
a 36 27 2
a 28 37 5
a 37 28 5
a 28 29 1
a 29 28 1
a 29 38 1
a 38 29 1
a 29 30 2
a 30 29 2
a 30 39 2
a 39 30 2
a 30 31 4
a 31 30 4
a 31 40 6
a 40 31 6
a 31 32 8
a 32 31 8
a 32 41 2
a 41 32 2
a 32 33 6
a 33 32 6
a 33 42 4
a 42 33 4
a 33 34 5
a 34 33 5
a 34 35 6
a 35 34 6
a 35 44 8
a 44 35 8
a 35 36 2
a 36 35 2
a 37 46 5
a 46 37 5
a 37 38 2
a 38 37 2
a 38 47 1
a 47 38 1
a 38 39 10
a 39 38 10
a 39 48 8
a 48 39 8
a 39 40 2
a 40 39 2
a 40 49 8
a 49 40 8
a 40 41 3
a 41 40 3
a 41 50 9
a 50 41 9
a 41 42 8
a 42 41 8
a 46 55 3
a 55 46 3
a 46 47 2
a 47 46 2
a 47 56 3
a 56 47 3
a 47 48 7
a 48 47 7
a 48 57 4
a 57 48 4
a 48 49 4
a 49 48 4
a 49 58 8
a 58 49 8
a 49 50 10
a 50 49 10
a 50 59 9
a 59 50 9
a 52 61 7
a 61 52 7
a 54 63 2
a 63 54 2
a 55 56 9
a 56 55 9
a 56 65 6
a 65 56 6
a 56 57 10
a 57 56 10
a 57 66 6
a 66 57 6
a 57 58 1
a 58 57 1
a 58 67 10
a 67 58 10
a 58 59 10
a 59 58 10
a 59 68 7
a 68 59 7
a 61 70 7
a 70 61 7
a 61 62 7
a 62 61 7
a 62 71 6
a 71 62 6
a 62 63 9
a 63 62 9
a 63 72 3
a 72 63 3
a 65 74 9
a 74 65 9
a 65 66 9
a 66 65 9
a 66 75 7
a 75 66 7
a 66 67 5
a 67 66 5
a 67 76 7
a 76 67 7
a 67 68 5
a 68 67 5
a 68 77 2
a 77 68 2
a 68 69 10
a 69 68 10
a 69 78 2
a 78 69 2
a 69 70 3
a 70 69 3
a 70 79 7
a 79 70 7
a 70 71 3
a 71 70 3
a 71 80 4
a 80 71 4
a 71 72 9
a 72 71 9
a 72 81 9
a 81 72 9
a 73 74 2
a 74 73 2
a 74 75 7
a 75 74 7
a 75 76 7
a 76 75 7
a 76 77 10
a 77 76 10
a 77 78 6
a 78 77 6
a 78 79 5
a 79 78 5
a 79 80 5
a 80 79 5
a 80 81 4
a 81 80 4
